
Gurobi 13.0.0 (linux64) logging started Sun Jan 18 00:41:13 2026

Set parameter LogFile to value "../experiments/network-n_60_s_0_rp_0-app_set-id_74_29_apps/submip_40_epr1_model_gurobi.log"
Set parameter TimeLimit to value 7.3849034506399767e+02
Gurobi Optimizer version 13.0.0 build v13.0.0rc1 (linux64 - "Ubuntu 24.04.3 LTS")

CPU model: Intel(R) Core(TM) Ultra 7 165H, instruction set [SSE2|AVX|AVX2]
Thread count: 22 physical cores, 22 logical processors, using up to 22 threads

Non-default parameters:
TimeLimit  7.3849034506399767e+02
LogToConsole  0

Academic license 2539022 - for non-commercial use only - registered to al___@studenti.unimi.it
Optimize a model with 60074 rows, 11280 columns and 135933 nonzeros (Min)
Model fingerprint: 0x101f1452
Model has 11280 linear objective coefficients
Model has 200 quadratic constraints
Variable types: 0 continuous, 11280 integer (11280 binary)
Coefficient statistics:
  Matrix range     [1e+00, 9e+02]
  QMatrix range    [5e+01, 2e+02]
  Objective range  [1e+01, 2e+02]
  Bounds range     [1e+00, 1e+00]
  RHS range        [1e+00, 1e+09]
  QRHS range       [1e+02, 6e+02]
Presolve removed 59203 rows and 8983 columns
Presolve time: 0.11s
Presolved: 20140 rows, 21368 columns, 131398 nonzeros
Variable types: 0 continuous, 21368 integer (21368 binary)
Performing another presolve...
Presolve removed 1661 rows and 1938 columns
Presolve time: 0.48s
Deterministic concurrent LP optimizer: primal and dual simplex
Showing primal log only...

Concurrent spin time: 0.00s

Solved with dual simplex

Root relaxation: objective 7.102681e+03, 3625 iterations, 0.78 seconds (0.68 work units)

    Nodes    |    Current Node    |     Objective Bounds      |     Work
 Expl Unexpl |  Obj  Depth IntInf | Incumbent    BestBd   Gap | It/Node Time

     0     0 7102.68072    0  233          - 7102.68072      -     -    1s
     0     0 7104.60788    0  224          - 7104.60788      -     -    1s
     0     0 7272.57595    0  270          - 7272.57595      -     -    3s
     0     0 7537.54904    0  283          - 7537.54904      -     -    4s
     0     0 7591.80712    0  298          - 7591.80712      -     -    4s
     0     0 7607.26764    0  317          - 7607.26764      -     -    4s
     0     0 7607.71521    0  311          - 7607.71521      -     -    4s
     0     0 infeasible    0               - infeasible      -     -    5s

Cutting planes:
  Gomory: 2
  Lift-and-project: 14
  Cover: 77
  Clique: 58
  MIR: 63
  Knapsack: 21
  StrongCG: 41
  GUB cover: 16
  Zero half: 23
  RLT: 96
  Relax-and-lift: 59
  BQP: 41

Explored 1 nodes (8742 simplex iterations) in 5.75 seconds (5.06 work units)
Thread count was 22 (of 22 available processors)

Solution count 0

Model is infeasible
Best objective -, best bound -, gap -

User-callback calls 831, time in user-callback 0.00 sec
